proyfinal/src/viki/013/andrea/andrea-localstore/experimentInOfficeAgust.take6/worker_5/de6e1204-c354-4377-8a4e-f0a1fb883a47.als.cnf.out
Reading from standard input... Use '--help' for help.
============================[ Problem Statistics ]=============================
|                                                                             |
|  Number of variables:         87638                                         |
|  Number of clauses:          161767                                         |
|  Parse time:                   0.03 s                                       |
|                                                                             |
============================[ Search Statistics ]==============================
| Conflicts |          ORIGINAL         |          LEARNT          | Progress |
|           |    Vars  Clauses Literals |    Limit  Clauses Lit/Cl |          |
===============================================================================
|       100 |   61881   103565   258323 |    37973      100     47 | 29.390 % |
|       250 |   61861   103486   258141 |    41771      248     55 | 29.413 % |
|       475 |   61861   103486   258141 |    45948      473     38 | 29.413 % |
|       812 |   61837   103390   257908 |    50543      809     71 | 29.440 % |
|      1318 |   51188    72513   181884 |    55597     1282     71 | 41.592 % |
|      2077 |   51138    72339   181486 |    61157     2036     61 | 41.649 % |
|      3216 |   51138    72339   181486 |    67272     3175     55 | 41.649 % |
|      4924 |   51022    71841   180288 |    74000     4869     50 | 41.781 % |
|      7486 |   50608    70937   178218 |    81400     6368     49 | 42.253 % |
|     11330 |   50451    69403   174582 |    89540     9716     47 | 42.433 % |
===============================================================================
restarts              : 52
conflicts             : 12019          (9496 /sec)
decisions             : 39708          (0.00 % random) (31373 /sec)
propagations          : 14655133       (11578953 /sec)
conflict literals     : 544459         (44.12 % deleted)
Memory used           : 35.34 MB
CPU time              : 1.26567 s

UNSATISFIABLE
